(set-logic QF_S)
(declare-fun var_0xINPUT_233086 () String)
(assert (and (= (len var_0xINPUT_233086) 0) (= (len var_0xINPUT_233086) 0) (not (= var_0xINPUT_233086 "Example:")) (not (= var_0xINPUT_233086 "4PH2ujcENG"))))
(check-sat var_0xINPUT_233086)